NAME : portcgen-16-27
COMMENT : portcgen N=16, seed=27
TYPE : TSP
DIMENSION : 16
EDGE_WEIGHT_TYPE : EUC_2D
NODE_COORD_SECTION
1 -9253 482620
2 21575 -85879
3 -59684 287128
4 152918 250640
5 -72729 144919
6 -21019 -120489
7 -318245 145497
8 -45219 274411
9 88660 157214
10 -19424 131186
11 -230983 -329453
12 -328875 -335371
13 49944 -63567
14 59814 -273534
15 -144121 143358
16 256648 -152417
